p cnf 430 1488
-191 -82 0
-191 -84 0
-191 -67 0
-191 -17 0
-191 -129 0
191 82 84 67 17 129 0
-192 -26 0
-192 -134 0
-192 -10 0
-192 60 0
-192 -1 0
192 26 134 10 -60 1 0
-193 -20 0
-193 11 0
-193 -48 0
-193 -142 0
-193 -111 0
193 20 -11 48 142 111 0
-194 -92 0
-194 -74 0
-194 105 0
-194 -115 0
-194 146 0
194 92 74 -105 115 -146 0
-195 -125 0
-195 -87 0
-195 -56 0
-195 -135 0
-195 134 0
195 125 87 56 135 -134 0
191 192 193 194 195 0
-196 123 0
-196 159 0
-196 -130 0
-196 183 0
-196 -96 0
196 -123 -159 130 -183 96 0
-197 33 0
-197 -51 0
-197 170 0
-197 -14 0
-197 -11 0
197 -33 51 -170 14 11 0
-198 25 0
-198 20 0
-198 116 0
-198 3 0
-198 -88 0
198 -25 -20 -116 -3 88 0
-199 -157 0
-199 85 0
-199 141 0
-199 -104 0
-199 173 0
199 157 -85 -141 104 -173 0
-200 65 0
-200 103 0
-200 -126 0
-200 17 0
-200 95 0
200 -65 -103 126 -17 -95 0
196 197 198 199 200 0
-201 131 0
-201 134 0
-201 -86 0
-201 136 0
-201 14 0
201 -131 -134 86 -136 -14 0
-202 126 0
-202 73 0
-202 -187 0
-202 162 0
-202 36 0
202 -126 -73 187 -162 -36 0
-203 -39 0
-203 143 0
-203 -95 0
-203 182 0
-203 -183 0
203 39 -143 95 -182 183 0
-204 28 0
-204 -135 0
-204 -92 0
-204 -68 0
-204 -89 0
204 -28 135 92 68 89 0
-205 61 0
-205 85 0
-205 -161 0
-205 -105 0
-205 103 0
205 -61 -85 161 105 -103 0
201 202 203 204 205 0
-206 -34 0
-206 9 0
-206 136 0
-206 99 0
-206 -114 0
206 34 -9 -136 -99 114 0
-207 -37 0
-207 136 0
-207 -76 0
-207 74 0
-207 65 0
207 37 -136 76 -74 -65 0
-208 159 0
-208 -38 0
-208 -118 0
-208 -26 0
-208 27 0
208 -159 38 118 26 -27 0
-209 -63 0
-209 55 0
-209 154 0
-209 -96 0
-209 151 0
209 63 -55 -154 96 -151 0
-210 105 0
-210 -58 0
-210 -164 0
-210 -134 0
-210 166 0
210 -105 58 164 134 -166 0
206 207 208 209 210 0
-211 139 0
-211 62 0
-211 -70 0
-211 145 0
-211 181 0
211 -139 -62 70 -145 -181 0
-212 -142 0
-212 31 0
-212 -86 0
-212 -109 0
-212 182 0
212 142 -31 86 109 -182 0
-213 -150 0
-213 94 0
-213 -29 0
-213 185 0
-213 -147 0
213 150 -94 29 -185 147 0
-214 53 0
-214 -60 0
-214 -79 0
-214 -102 0
-214 173 0
214 -53 60 79 102 -173 0
-215 -160 0
-215 -142 0
-215 -34 0
-215 -151 0
-215 45 0
215 160 142 34 151 -45 0
211 212 213 214 215 0
-216 71 0
-216 -185 0
-216 -147 0
-216 24 0
-216 73 0
216 -71 185 147 -24 -73 0
-217 -36 0
-217 -144 0
-217 -134 0
-217 -169 0
-217 -111 0
217 36 144 134 169 111 0
-218 181 0
-218 -59 0
-218 98 0
-218 42 0
-218 154 0
218 -181 59 -98 -42 -154 0
-219 46 0
-219 140 0
-219 133 0
-219 -27 0
-219 164 0
219 -46 -140 -133 27 -164 0
-220 -86 0
-220 105 0
-220 76 0
-220 -169 0
-220 -149 0
220 86 -105 -76 169 149 0
216 217 218 219 220 0
-221 150 0
-221 54 0
-221 71 0
-221 127 0
-221 -12 0
221 -150 -54 -71 -127 12 0
-222 152 0
-222 -50 0
-222 87 0
-222 -19 0
-222 159 0
222 -152 50 -87 19 -159 0
-223 -72 0
-223 149 0
-223 -179 0
-223 100 0
-223 -20 0
223 72 -149 179 -100 20 0
-224 88 0
-224 159 0
-224 -165 0
-224 59 0
-224 130 0
224 -88 -159 165 -59 -130 0
-225 49 0
-225 20 0
-225 153 0
-225 -103 0
-225 142 0
225 -49 -20 -153 103 -142 0
221 222 223 224 225 0
-226 -41 0
-226 119 0
-226 -190 0
-226 -74 0
-226 125 0
226 41 -119 190 74 -125 0
-227 189 0
-227 -21 0
-227 -46 0
-227 -113 0
-227 71 0
227 -189 21 46 113 -71 0
-228 -178 0
-228 -16 0
-228 -147 0
-228 -61 0
-228 186 0
228 178 16 147 61 -186 0
-229 -188 0
-229 -126 0
-229 -36 0
-229 88 0
-229 23 0
229 188 126 36 -88 -23 0
-230 71 0
-230 20 0
-230 -145 0
-230 173 0
-230 -163 0
230 -71 -20 145 -173 163 0
226 227 228 229 230 0
-231 -85 0
-231 65 0
-231 81 0
-231 -153 0
-231 45 0
231 85 -65 -81 153 -45 0
-232 178 0
-232 175 0
-232 -69 0
-232 -97 0
-232 -183 0
232 -178 -175 69 97 183 0
-233 -115 0
-233 -170 0
-233 87 0
-233 -14 0
-233 -64 0
233 115 170 -87 14 64 0
-234 79 0
-234 111 0
-234 74 0
-234 -88 0
-234 83 0
234 -79 -111 -74 88 -83 0
-235 -117 0
-235 179 0
-235 154 0
-235 11 0
-235 132 0
235 117 -179 -154 -11 -132 0
231 232 233 234 235 0
-236 9 0
-236 124 0
-236 -165 0
-236 41 0
-236 -94 0
236 -9 -124 165 -41 94 0
-237 166 0
-237 95 0
-237 173 0
-237 -5 0
-237 -41 0
237 -166 -95 -173 5 41 0
-238 -132 0
-238 61 0
-238 -101 0
-238 -85 0
-238 -143 0
238 132 -61 101 85 143 0
-239 -52 0
-239 60 0
-239 -91 0
-239 188 0
-239 189 0
239 52 -60 91 -188 -189 0
-240 147 0
-240 14 0
-240 160 0
-240 135 0
-240 -124 0
240 -147 -14 -160 -135 124 0
236 237 238 239 240 0
-241 66 0
-241 71 0
-241 -109 0
-241 -130 0
-241 -57 0
241 -66 -71 109 130 57 0
-242 -159 0
-242 -32 0
-242 72 0
-242 96 0
-242 -66 0
242 159 32 -72 -96 66 0
-243 131 0
-243 11 0
-243 -174 0
-243 -31 0
-243 189 0
243 -131 -11 174 31 -189 0
-244 -101 0
-244 19 0
-244 63 0
-244 -112 0
-244 -71 0
244 101 -19 -63 112 71 0
-245 144 0
-245 168 0
-245 -114 0
-245 -149 0
-245 -189 0
245 -144 -168 114 149 189 0
241 242 243 244 245 0
-246 7 0
-246 71 0
-246 187 0
-246 168 0
-246 78 0
246 -7 -71 -187 -168 -78 0
-247 101 0
-247 150 0
-247 165 0
-247 -131 0
-247 127 0
247 -101 -150 -165 131 -127 0
-248 -80 0
-248 99 0
-248 163 0
-248 172 0
-248 -59 0
248 80 -99 -163 -172 59 0
-249 -48 0
-249 -178 0
-249 49 0
-249 -109 0
-249 19 0
249 48 178 -49 109 -19 0
-250 -25 0
-250 -100 0
-250 -53 0
-250 -137 0
-250 -54 0
250 25 100 53 137 54 0
246 247 248 249 250 0
-251 16 0
-251 -80 0
-251 -177 0
-251 7 0
-251 147 0
251 -16 80 177 -7 -147 0
-252 38 0
-252 -145 0
-252 -49 0
-252 156 0
-252 -62 0
252 -38 145 49 -156 62 0
-253 64 0
-253 109 0
-253 24 0
-253 -122 0
-253 -54 0
253 -64 -109 -24 122 54 0
-254 24 0
-254 -37 0
-254 93 0
-254 -176 0
-254 46 0
254 -24 37 -93 176 -46 0
-255 51 0
-255 -28 0
-255 176 0
-255 -150 0
-255 177 0
255 -51 28 -176 150 -177 0
251 252 253 254 255 0
-256 -54 0
-256 -164 0
-256 -162 0
-256 131 0
-256 -144 0
256 54 164 162 -131 144 0
-257 -98 0
-257 -90 0
-257 -35 0
-257 104 0
-257 -103 0
257 98 90 35 -104 103 0
-258 -154 0
-258 77 0
-258 62 0
-258 10 0
-258 -170 0
258 154 -77 -62 -10 170 0
-259 -126 0
-259 58 0
-259 75 0
-259 152 0
-259 -164 0
259 126 -58 -75 -152 164 0
-260 39 0
-260 141 0
-260 -10 0
-260 -121 0
-260 -177 0
260 -39 -141 10 121 177 0
256 257 258 259 260 0
-261 170 0
-261 -82 0
-261 100 0
-261 -107 0
-261 -132 0
261 -170 82 -100 107 132 0
-262 39 0
-262 -190 0
-262 -38 0
-262 153 0
-262 108 0
262 -39 190 38 -153 -108 0
-263 160 0
-263 -36 0
-263 142 0
-263 153 0
-263 -45 0
263 -160 36 -142 -153 45 0
-264 -33 0
-264 167 0
-264 43 0
-264 -11 0
-264 -57 0
264 33 -167 -43 11 57 0
-265 -19 0
-265 9 0
-265 171 0
-265 -37 0
-265 -175 0
265 19 -9 -171 37 175 0
261 262 263 264 265 0
-266 -37 0
-266 -35 0
-266 -80 0
-266 144 0
-266 -1 0
266 37 35 80 -144 1 0
-267 -147 0
-267 121 0
-267 135 0
-267 -62 0
-267 10 0
267 147 -121 -135 62 -10 0
-268 11 0
-268 31 0
-268 20 0
-268 -32 0
-268 104 0
268 -11 -31 -20 32 -104 0
-269 64 0
-269 -166 0
-269 4 0
-269 -51 0
-269 -50 0
269 -64 166 -4 51 50 0
-270 -181 0
-270 -54 0
-270 -134 0
-270 -17 0
-270 103 0
270 181 54 134 17 -103 0
266 267 268 269 270 0
-271 125 0
-271 -43 0
-271 -14 0
-271 -67 0
-271 55 0
271 -125 43 14 67 -55 0
-272 -162 0
-272 -169 0
-272 -3 0
-272 138 0
-272 -76 0
272 162 169 3 -138 76 0
-273 -104 0
-273 -62 0
-273 -75 0
-273 -163 0
-273 55 0
273 104 62 75 163 -55 0
-274 -99 0
-274 -23 0
-274 18 0
-274 2 0
-274 4 0
274 99 23 -18 -2 -4 0
-275 92 0
-275 -15 0
-275 13 0
-275 -157 0
-275 62 0
275 -92 15 -13 157 -62 0
271 272 273 274 275 0
-276 14 0
-276 -40 0
-276 -122 0
-276 130 0
-276 190 0
276 -14 40 122 -130 -190 0
-277 84 0
-277 24 0
-277 42 0
-277 150 0
-277 76 0
277 -84 -24 -42 -150 -76 0
-278 -5 0
-278 -95 0
-278 139 0
-278 66 0
-278 -46 0
278 5 95 -139 -66 46 0
-279 -12 0
-279 -58 0
-279 -169 0
-279 25 0
-279 -7 0
279 12 58 169 -25 7 0
-280 -144 0
-280 -45 0
-280 -112 0
-280 105 0
-280 -158 0
280 144 45 112 -105 158 0
276 277 278 279 280 0
-281 147 0
-281 -140 0
-281 100 0
-281 -110 0
-281 -61 0
281 -147 140 -100 110 61 0
-282 -173 0
-282 128 0
-282 -12 0
-282 -30 0
-282 20 0
282 173 -128 12 30 -20 0
-283 -142 0
-283 104 0
-283 -57 0
-283 88 0
-283 71 0
283 142 -104 57 -88 -71 0
-284 -122 0
-284 36 0
-284 162 0
-284 -77 0
-284 -158 0
284 122 -36 -162 77 158 0
-285 182 0
-285 131 0
-285 -52 0
-285 33 0
-285 -72 0
285 -182 -131 52 -33 72 0
281 282 283 284 285 0
-286 32 0
-286 -19 0
-286 159 0
-286 113 0
-286 79 0
286 -32 19 -159 -113 -79 0
-287 -50 0
-287 137 0
-287 108 0
-287 96 0
-287 -35 0
287 50 -137 -108 -96 35 0
-288 -96 0
-288 164 0
-288 -11 0
-288 156 0
-288 -107 0
288 96 -164 11 -156 107 0
-289 -7 0
-289 -57 0
-289 24 0
-289 -110 0
-289 -30 0
289 7 57 -24 110 30 0
-290 133 0
-290 126 0
-290 -72 0
-290 70 0
-290 104 0
290 -133 -126 72 -70 -104 0
286 287 288 289 290 0
-291 147 0
-291 -38 0
-291 -29 0
-291 49 0
-291 64 0
291 -147 38 29 -49 -64 0
-292 104 0
-292 -190 0
-292 21 0
-292 142 0
-292 -165 0
292 -104 190 -21 -142 165 0
-293 169 0
-293 -100 0
-293 -159 0
-293 -117 0
-293 9 0
293 -169 100 159 117 -9 0
-294 17 0
-294 -73 0
-294 131 0
-294 152 0
-294 -5 0
294 -17 73 -131 -152 5 0
-295 -110 0
-295 15 0
-295 66 0
-295 -143 0
-295 36 0
295 110 -15 -66 143 -36 0
291 292 293 294 295 0
-296 -120 0
-296 7 0
-296 8 0
-296 97 0
-296 105 0
296 120 -7 -8 -97 -105 0
-297 176 0
-297 47 0
-297 -6 0
-297 -132 0
-297 -115 0
297 -176 -47 6 132 115 0
-298 -135 0
-298 188 0
-298 -21 0
-298 -106 0
-298 -145 0
298 135 -188 21 106 145 0
-299 164 0
-299 41 0
-299 151 0
-299 -54 0
-299 -177 0
299 -164 -41 -151 54 177 0
-300 -120 0
-300 178 0
-300 190 0
-300 -68 0
-300 -111 0
300 120 -178 -190 68 111 0
296 297 298 299 300 0
-301 89 0
-301 1 0
-301 42 0
-301 119 0
-301 158 0
301 -89 -1 -42 -119 -158 0
-302 114 0
-302 -159 0
-302 -87 0
-302 -41 0
-302 35 0
302 -114 159 87 41 -35 0
-303 -62 0
-303 140 0
-303 -25 0
-303 77 0
-303 16 0
303 62 -140 25 -77 -16 0
-304 55 0
-304 -15 0
-304 -98 0
-304 -155 0
-304 -125 0
304 -55 15 98 155 125 0
-305 30 0
-305 140 0
-305 -47 0
-305 -3 0
-305 96 0
305 -30 -140 47 3 -96 0
301 302 303 304 305 0
-306 1 0
-306 -26 0
-306 -18 0
-306 -114 0
-306 78 0
306 -1 26 18 114 -78 0
-307 -34 0
-307 30 0
-307 48 0
-307 168 0
-307 -89 0
307 34 -30 -48 -168 89 0
-308 -153 0
-308 -21 0
-308 157 0
-308 -115 0
-308 -76 0
308 153 21 -157 115 76 0
-309 -164 0
-309 96 0
-309 -174 0
-309 31 0
-309 -49 0
309 164 -96 174 -31 49 0
-310 80 0
-310 35 0
-310 -160 0
-310 -123 0
-310 -78 0
310 -80 -35 160 123 78 0
306 307 308 309 310 0
-311 -179 0
-311 107 0
-311 82 0
-311 90 0
-311 53 0
311 179 -107 -82 -90 -53 0
-312 28 0
-312 -112 0
-312 -70 0
-312 -107 0
-312 -136 0
312 -28 112 70 107 136 0
-313 71 0
-313 -11 0
-313 145 0
-313 69 0
-313 133 0
313 -71 11 -145 -69 -133 0
-314 -126 0
-314 -29 0
-314 181 0
-314 124 0
-314 107 0
314 126 29 -181 -124 -107 0
-315 162 0
-315 33 0
-315 -26 0
-315 156 0
-315 63 0
315 -162 -33 26 -156 -63 0
311 312 313 314 315 0
-316 -3 0
-316 124 0
-316 -33 0
-316 -88 0
-316 -115 0
316 3 -124 33 88 115 0
-317 161 0
-317 158 0
-317 162 0
-317 73 0
-317 -40 0
317 -161 -158 -162 -73 40 0
-318 33 0
-318 154 0
-318 -151 0
-318 -35 0
-318 -41 0
318 -33 -154 151 35 41 0
-319 -181 0
-319 -28 0
-319 163 0
-319 -89 0
-319 -124 0
319 181 28 -163 89 124 0
-320 78 0
-320 30 0
-320 17 0
-320 -176 0
-320 -22 0
320 -78 -30 -17 176 22 0
316 317 318 319 320 0
-321 16 0
-321 143 0
-321 67 0
-321 10 0
-321 -129 0
321 -16 -143 -67 -10 129 0
-322 -133 0
-322 46 0
-322 145 0
-322 -3 0
-322 26 0
322 133 -46 -145 3 -26 0
-323 -144 0
-323 -157 0
-323 29 0
-323 129 0
-323 111 0
323 144 157 -29 -129 -111 0
-324 177 0
-324 77 0
-324 -88 0
-324 -108 0
-324 189 0
324 -177 -77 88 108 -189 0
-325 -41 0
-325 -105 0
-325 141 0
-325 34 0
-325 175 0
325 41 105 -141 -34 -175 0
321 322 323 324 325 0
-326 -136 0
-326 66 0
-326 -131 0
-326 -179 0
-326 -148 0
326 136 -66 131 179 148 0
-327 -159 0
-327 1 0
-327 146 0
-327 -86 0
-327 -116 0
327 159 -1 -146 86 116 0
-328 75 0
-328 121 0
-328 -109 0
-328 -1 0
-328 154 0
328 -75 -121 109 1 -154 0
-329 -130 0
-329 137 0
-329 -99 0
-329 -89 0
-329 186 0
329 130 -137 99 89 -186 0
-330 96 0
-330 -36 0
-330 -22 0
-330 -185 0
-330 -51 0
330 -96 36 22 185 51 0
326 327 328 329 330 0
-331 169 0
-331 58 0
-331 149 0
-331 134 0
-331 151 0
331 -169 -58 -149 -134 -151 0
-332 -127 0
-332 -159 0
-332 131 0
-332 -44 0
-332 58 0
332 127 159 -131 44 -58 0
-333 126 0
-333 36 0
-333 87 0
-333 91 0
-333 33 0
333 -126 -36 -87 -91 -33 0
-334 93 0
-334 85 0
-334 -32 0
-334 129 0
-334 -16 0
334 -93 -85 32 -129 16 0
-335 -139 0
-335 -112 0
-335 -70 0
-335 -28 0
-335 123 0
335 139 112 70 28 -123 0
331 332 333 334 335 0
-336 -71 0
-336 150 0
-336 -170 0
-336 -97 0
-336 171 0
336 71 -150 170 97 -171 0
-337 -120 0
-337 -162 0
-337 182 0
-337 55 0
-337 -137 0
337 120 162 -182 -55 137 0
-338 -81 0
-338 -5 0
-338 41 0
-338 179 0
-338 89 0
338 81 5 -41 -179 -89 0
-339 93 0
-339 -73 0
-339 161 0
-339 -132 0
-339 90 0
339 -93 73 -161 132 -90 0
-340 71 0
-340 -88 0
-340 -164 0
-340 123 0
-340 132 0
340 -71 88 164 -123 -132 0
336 337 338 339 340 0
-341 -25 0
-341 -150 0
-341 -91 0
-341 56 0
-341 -100 0
341 25 150 91 -56 100 0
-342 -60 0
-342 38 0
-342 -110 0
-342 -148 0
-342 -127 0
342 60 -38 110 148 127 0
-343 108 0
-343 1 0
-343 -54 0
-343 75 0
-343 91 0
343 -108 -1 54 -75 -91 0
-344 55 0
-344 -81 0
-344 114 0
-344 -141 0
-344 14 0
344 -55 81 -114 141 -14 0
-345 -38 0
-345 22 0
-345 155 0
-345 10 0
-345 -152 0
345 38 -22 -155 -10 152 0
341 342 343 344 345 0
-346 -123 0
-346 102 0
-346 153 0
-346 85 0
-346 -106 0
346 123 -102 -153 -85 106 0
-347 126 0
-347 42 0
-347 -105 0
-347 153 0
-347 47 0
347 -126 -42 105 -153 -47 0
-348 113 0
-348 180 0
-348 -115 0
-348 -71 0
-348 -12 0
348 -113 -180 115 71 12 0
-349 136 0
-349 161 0
-349 -41 0
-349 168 0
-349 7 0
349 -136 -161 41 -168 -7 0
-350 143 0
-350 -82 0
-350 -118 0
-350 -149 0
-350 109 0
350 -143 82 118 149 -109 0
346 347 348 349 350 0
-351 -86 0
-351 -1 0
-351 -22 0
-351 -184 0
-351 19 0
351 86 1 22 184 -19 0
-352 -119 0
-352 -57 0
-352 -13 0
-352 -138 0
-352 79 0
352 119 57 13 138 -79 0
-353 104 0
-353 -93 0
-353 -35 0
-353 8 0
-353 -15 0
353 -104 93 35 -8 15 0
-354 44 0
-354 137 0
-354 -57 0
-354 -182 0
-354 1 0
354 -44 -137 57 182 -1 0
-355 158 0
-355 -150 0
-355 124 0
-355 -51 0
-355 -33 0
355 -158 150 -124 51 33 0
351 352 353 354 355 0
-356 -3 0
-356 163 0
-356 145 0
-356 153 0
-356 49 0
356 3 -163 -145 -153 -49 0
-357 -50 0
-357 -45 0
-357 -121 0
-357 10 0
-357 -41 0
357 50 45 121 -10 41 0
-358 173 0
-358 -172 0
-358 -75 0
-358 -14 0
-358 -161 0
358 -173 172 75 14 161 0
-359 -138 0
-359 170 0
-359 140 0
-359 -33 0
-359 -190 0
359 138 -170 -140 33 190 0
-360 -162 0
-360 50 0
-360 156 0
-360 60 0
-360 137 0
360 162 -50 -156 -60 -137 0
356 357 358 359 360 0
-361 46 0
-361 25 0
-361 189 0
-361 -51 0
-361 13 0
361 -46 -25 -189 51 -13 0
-362 -146 0
-362 84 0
-362 83 0
-362 -142 0
-362 64 0
362 146 -84 -83 142 -64 0
-363 29 0
-363 94 0
-363 177 0
-363 -166 0
-363 -22 0
363 -29 -94 -177 166 22 0
-364 39 0
-364 -81 0
-364 33 0
-364 71 0
-364 150 0
364 -39 81 -33 -71 -150 0
-365 -122 0
-365 144 0
-365 -102 0
-365 -17 0
-365 41 0
365 122 -144 102 17 -41 0
361 362 363 364 365 0
-366 -111 0
-366 102 0
-366 90 0
-366 163 0
-366 62 0
366 111 -102 -90 -163 -62 0
-367 129 0
-367 101 0
-367 -71 0
-367 -120 0
-367 118 0
367 -129 -101 71 120 -118 0
-368 118 0
-368 -45 0
-368 -111 0
-368 156 0
-368 55 0
368 -118 45 111 -156 -55 0
-369 164 0
-369 132 0
-369 -62 0
-369 181 0
-369 -1 0
369 -164 -132 62 -181 1 0
-370 156 0
-370 64 0
-370 -45 0
-370 -188 0
-370 140 0
370 -156 -64 45 188 -140 0
366 367 368 369 370 0
-371 71 0
-371 127 0
-371 112 0
-371 -10 0
-371 160 0
371 -71 -127 -112 10 -160 0
-372 61 0
-372 -155 0
-372 -35 0
-372 -4 0
-372 104 0
372 -61 155 35 4 -104 0
-373 -50 0
-373 -160 0
-373 -142 0
-373 -22 0
-373 -121 0
373 50 160 142 22 121 0
-374 53 0
-374 -123 0
-374 48 0
-374 -27 0
-374 -13 0
374 -53 123 -48 27 13 0
-375 -76 0
-375 17 0
-375 147 0
-375 12 0
-375 -183 0
375 76 -17 -147 -12 183 0
371 372 373 374 375 0
-376 89 0
-376 96 0
-376 13 0
-376 -158 0
-376 143 0
376 -89 -96 -13 158 -143 0
-377 163 0
-377 -14 0
-377 -45 0
-377 -121 0
-377 -172 0
377 -163 14 45 121 172 0
-378 7 0
-378 -187 0
-378 185 0
-378 76 0
-378 -36 0
378 -7 187 -185 -76 36 0
-379 -136 0
-379 -22 0
-379 164 0
-379 -145 0
-379 183 0
379 136 22 -164 145 -183 0
-380 -186 0
-380 145 0
-380 -154 0
-380 135 0
-380 160 0
380 186 -145 154 -135 -160 0
376 377 378 379 380 0
-381 183 0
-381 -126 0
-381 -36 0
-381 147 0
-381 -22 0
381 -183 126 36 -147 22 0
-382 -90 0
-382 -48 0
-382 -181 0
-382 100 0
-382 15 0
382 90 48 181 -100 -15 0
-383 -10 0
-383 -119 0
-383 149 0
-383 26 0
-383 -69 0
383 10 119 -149 -26 69 0
-384 -86 0
-384 100 0
-384 -9 0
-384 -108 0
-384 27 0
384 86 -100 9 108 -27 0
-385 -10 0
-385 -152 0
-385 -183 0
-385 136 0
-385 123 0
385 10 152 183 -136 -123 0
381 382 383 384 385 0
-386 171 0
-386 -28 0
-386 172 0
-386 -127 0
-386 156 0
386 -171 28 -172 127 -156 0
-387 18 0
-387 -117 0
-387 98 0
-387 -8 0
-387 161 0
387 -18 117 -98 8 -161 0
-388 28 0
-388 159 0
-388 -48 0
-388 52 0
-388 137 0
388 -28 -159 48 -52 -137 0
-389 -163 0
-389 -84 0
-389 -49 0
-389 11 0
-389 -156 0
389 163 84 49 -11 156 0
-390 -69 0
-390 11 0
-390 114 0
-390 55 0
-390 -50 0
390 69 -11 -114 -55 50 0
386 387 388 389 390 0
-391 -175 0
-391 143 0
-391 187 0
-391 6 0
-391 -190 0
391 175 -143 -187 -6 190 0
-392 70 0
-392 -66 0
-392 155 0
-392 -25 0
-392 80 0
392 -70 66 -155 25 -80 0
-393 97 0
-393 178 0
-393 83 0
-393 -104 0
-393 4 0
393 -97 -178 -83 104 -4 0
-394 101 0
-394 -129 0
-394 159 0
-394 12 0
-394 -123 0
394 -101 129 -159 -12 123 0
-395 11 0
-395 -157 0
-395 -115 0
-395 -168 0
-395 -61 0
395 -11 157 115 168 61 0
391 392 393 394 395 0
-396 -74 0
-396 81 0
-396 97 0
-396 -3 0
-396 -12 0
396 74 -81 -97 3 12 0
-397 -143 0
-397 32 0
-397 -93 0
-397 54 0
-397 118 0
397 143 -32 93 -54 -118 0
-398 -127 0
-398 -49 0
-398 155 0
-398 174 0
-398 -130 0
398 127 49 -155 -174 130 0
-399 -11 0
-399 -42 0
-399 -66 0
-399 -172 0
-399 -180 0
399 11 42 66 172 180 0
-400 -47 0
-400 72 0
-400 156 0
-400 -11 0
-400 -180 0
400 47 -72 -156 11 180 0
396 397 398 399 400 0
-401 -113 0
-401 118 0
-401 -108 0
-401 -37 0
-401 -68 0
401 113 -118 108 37 68 0
-402 -129 0
-402 -84 0
-402 181 0
-402 144 0
-402 169 0
402 129 84 -181 -144 -169 0
-403 83 0
-403 134 0
-403 72 0
-403 57 0
-403 -21 0
403 -83 -134 -72 -57 21 0
-404 -93 0
-404 52 0
-404 -49 0
-404 17 0
-404 -131 0
404 93 -52 49 -17 131 0
-405 -184 0
-405 15 0
-405 -135 0
-405 -107 0
-405 36 0
405 184 -15 135 107 -36 0
401 402 403 404 405 0
-406 -36 0
-406 -118 0
-406 26 0
-406 -160 0
-406 -23 0
406 36 118 -26 160 23 0
-407 -64 0
-407 -68 0
-407 -118 0
-407 95 0
-407 99 0
407 64 68 118 -95 -99 0
-408 185 0
-408 153 0
-408 -86 0
-408 125 0
-408 -158 0
408 -185 -153 86 -125 158 0
-409 -101 0
-409 -153 0
-409 147 0
-409 22 0
-409 -122 0
409 101 153 -147 -22 122 0
-410 80 0
-410 -63 0
-410 -51 0
-410 151 0
-410 66 0
410 -80 63 51 -151 -66 0
406 407 408 409 410 0
-411 80 0
-411 -182 0
-411 165 0
-411 -26 0
-411 54 0
411 -80 182 -165 26 -54 0
-412 181 0
-412 175 0
-412 42 0
-412 -26 0
-412 177 0
412 -181 -175 -42 26 -177 0
-413 -162 0
-413 90 0
-413 -43 0
-413 -143 0
-413 -123 0
413 162 -90 43 143 123 0
-414 -34 0
-414 -117 0
-414 -54 0
-414 -156 0
-414 113 0
414 34 117 54 156 -113 0
-415 -102 0
-415 79 0
-415 132 0
-415 -167 0
-415 141 0
415 102 -79 -132 167 -141 0
411 412 413 414 415 0
-416 -139 0
-416 92 0
-416 -11 0
-416 -90 0
-416 10 0
416 139 -92 11 90 -10 0
-417 167 0
-417 -118 0
-417 -78 0
-417 -120 0
-417 -177 0
417 -167 118 78 120 177 0
-418 122 0
-418 -170 0
-418 -22 0
-418 142 0
-418 -174 0
418 -122 170 22 -142 174 0
-419 3 0
-419 -55 0
-419 -37 0
-419 -134 0
-419 -158 0
419 -3 55 37 134 158 0
-420 -119 0
-420 62 0
-420 -140 0
-420 21 0
-420 -83 0
420 119 -62 140 -21 83 0
416 417 418 419 420 0
-421 57 0
-421 10 0
-421 -112 0
-421 -19 0
-421 24 0
421 -57 -10 112 19 -24 0
-422 61 0
-422 -7 0
-422 34 0
-422 102 0
-422 -93 0
422 -61 7 -34 -102 93 0
-423 33 0
-423 1 0
-423 185 0
-423 167 0
-423 -68 0
423 -33 -1 -185 -167 68 0
-424 -46 0
-424 -170 0
-424 99 0
-424 -118 0
-424 -154 0
424 46 170 -99 118 154 0
-425 17 0
-425 152 0
-425 7 0
-425 61 0
-425 34 0
425 -17 -152 -7 -61 -34 0
421 422 423 424 425 0
-426 -60 0
-426 -74 0
-426 147 0
-426 -4 0
-426 49 0
426 60 74 -147 4 -49 0
-427 18 0
-427 64 0
-427 -52 0
-427 90 0
-427 47 0
427 -18 -64 52 -90 -47 0
-428 -93 0
-428 -97 0
-428 -90 0
-428 -152 0
-428 -36 0
428 93 97 90 152 36 0
-429 -139 0
-429 -184 0
-429 104 0
-429 -17 0
-429 -123 0
429 139 184 -104 17 123 0
-430 -160 0
-430 155 0
-430 -181 0
-430 -144 0
-430 125 0
430 160 -155 181 144 -125 0
426 427 428 429 430 0
